# CELL file written 12:14:29 (GMT+1.0) 5th May 2021 from run Cu

%BLOCK lattice_cart
   ANG
      -1.76692270000000        0.00000000000000        1.76692270000000    
       0.00000000000000        1.76692270000000        1.76692270000000    
      -1.76692270000000        1.76692270000000        0.00000000000000    
%ENDBLOCK lattice_cart

%BLOCK cell_constraints
      1   1   1
      0   0   0
%ENDBLOCK cell_constraints

%BLOCK positions_frac
   Cu             0.000000000000000       0.000000000000000       0.000000000000000
%ENDBLOCK positions_frac

FIX_COM : true

%BLOCK species_pot
   Cu      3|2.2|2.0|1.0|10|12|13|40:41:32(qc=6)
%ENDBLOCK species_pot

SYMMETRY_TOL :     0.001000

%BLOCK symmetry_ops
# Symm. op. 1       E
          1.000000000000000       0.000000000000000      -0.000000000000000
          0.000000000000000       1.000000000000000      -0.000000000000000
         -0.000000000000000       0.000000000000000       1.000000000000000
          0.000000000000000       0.000000000000000       0.000000000000000
# Symm. op. 2       I
         -1.000000000000000      -0.000000000000000       0.000000000000000
         -0.000000000000000      -1.000000000000000       0.000000000000000
          0.000000000000000      -0.000000000000000      -1.000000000000000
          0.000000000000000       0.000000000000000       0.000000000000000
# Symm. op. 3       4
          0.000000000000000       1.000000000000000      -0.000000000000000
         -1.000000000000000      -0.000000000000000       0.000000000000000
         -0.000000000000000       0.000000000000000       1.000000000000000
          0.000000000000000       0.000000000000000       0.000000000000000
# Symm. op. 4      -4
         -0.000000000000000      -1.000000000000000       0.000000000000000
          1.000000000000000       0.000000000000000      -0.000000000000000
          0.000000000000000      -0.000000000000000      -1.000000000000000
          0.000000000000000       0.000000000000000       0.000000000000000
# Symm. op. 5       2
         -1.000000000000000      -0.000000000000000       0.000000000000000
         -0.000000000000000      -1.000000000000000       0.000000000000000
         -0.000000000000000       0.000000000000000       1.000000000000000
          0.000000000000000       0.000000000000000       0.000000000000000
# Symm. op. 6       m
          1.000000000000000       0.000000000000000      -0.000000000000000
          0.000000000000000       1.000000000000000      -0.000000000000000
          0.000000000000000      -0.000000000000000      -1.000000000000000
          0.000000000000000       0.000000000000000       0.000000000000000
# Symm. op. 7       4
         -0.000000000000000      -1.000000000000000       0.000000000000000
          1.000000000000000       0.000000000000000      -0.000000000000000
         -0.000000000000000       0.000000000000000       1.000000000000000
          0.000000000000000       0.000000000000000       0.000000000000000
# Symm. op. 8      -4
          0.000000000000000       1.000000000000000      -0.000000000000000
         -1.000000000000000      -0.000000000000000       0.000000000000000
          0.000000000000000      -0.000000000000000      -1.000000000000000
          0.000000000000000       0.000000000000000       0.000000000000000
# Symm. op. 9       2
          1.000000000000000       0.000000000000000      -0.000000000000000
         -0.000000000000000      -1.000000000000000       0.000000000000000
          0.000000000000000      -0.000000000000000      -1.000000000000000
          0.000000000000000       0.000000000000000       0.000000000000000
# Symm. op. 10      m
         -1.000000000000000      -0.000000000000000       0.000000000000000
          0.000000000000000       1.000000000000000      -0.000000000000000
         -0.000000000000000       0.000000000000000       1.000000000000000
          0.000000000000000       0.000000000000000       0.000000000000000
# Symm. op. 11      2
         -0.000000000000000      -1.000000000000000       0.000000000000000
         -1.000000000000000      -0.000000000000000       0.000000000000000
          0.000000000000000      -0.000000000000000      -1.000000000000000
          0.000000000000000       0.000000000000000       0.000000000000000
# Symm. op. 12      m
          0.000000000000000       1.000000000000000      -0.000000000000000
          1.000000000000000       0.000000000000000      -0.000000000000000
         -0.000000000000000       0.000000000000000       1.000000000000000
          0.000000000000000       0.000000000000000       0.000000000000000
# Symm. op. 13      2
         -1.000000000000000      -0.000000000000000       0.000000000000000
          0.000000000000000       1.000000000000000      -0.000000000000000
          0.000000000000000      -0.000000000000000      -1.000000000000000
          0.000000000000000       0.000000000000000       0.000000000000000
# Symm. op. 14      m
          1.000000000000000       0.000000000000000      -0.000000000000000
         -0.000000000000000      -1.000000000000000       0.000000000000000
         -0.000000000000000       0.000000000000000       1.000000000000000
          0.000000000000000       0.000000000000000       0.000000000000000
# Symm. op. 15      2
          0.000000000000000       1.000000000000000      -0.000000000000000
          1.000000000000000       0.000000000000000      -0.000000000000000
          0.000000000000000      -0.000000000000000      -1.000000000000000
          0.000000000000000       0.000000000000000       0.000000000000000
# Symm. op. 16      m
         -0.000000000000000      -1.000000000000000       0.000000000000000
         -1.000000000000000      -0.000000000000000       0.000000000000000
         -0.000000000000000       0.000000000000000       1.000000000000000
          0.000000000000000       0.000000000000000       0.000000000000000
# Symm. op. 17      3
          0.000000000000000       1.000000000000000      -0.000000000000000
         -0.000000000000000       0.000000000000000       1.000000000000000
          1.000000000000000       0.000000000000000      -0.000000000000000
          0.000000000000000       0.000000000000000       0.000000000000000
# Symm. op. 18     -3
         -0.000000000000000      -1.000000000000000       0.000000000000000
          0.000000000000000      -0.000000000000000      -1.000000000000000
         -1.000000000000000      -0.000000000000000       0.000000000000000
          0.000000000000000       0.000000000000000       0.000000000000000
# Symm. op. 19      2
         -0.000000000000000       0.000000000000000       1.000000000000000
         -0.000000000000000      -1.000000000000000       0.000000000000000
          1.000000000000000       0.000000000000000      -0.000000000000000
          0.000000000000000       0.000000000000000       0.000000000000000
# Symm. op. 20      m
          0.000000000000000      -0.000000000000000      -1.000000000000000
          0.000000000000000       1.000000000000000      -0.000000000000000
         -1.000000000000000      -0.000000000000000       0.000000000000000
          0.000000000000000       0.000000000000000       0.000000000000000
# Symm. op. 21      3
         -0.000000000000000      -1.000000000000000       0.000000000000000
          0.000000000000000      -0.000000000000000      -1.000000000000000
          1.000000000000000       0.000000000000000      -0.000000000000000
          0.000000000000000       0.000000000000000       0.000000000000000
# Symm. op. 22     -3
          0.000000000000000       1.000000000000000      -0.000000000000000
         -0.000000000000000       0.000000000000000       1.000000000000000
         -1.000000000000000      -0.000000000000000       0.000000000000000
          0.000000000000000       0.000000000000000       0.000000000000000
# Symm. op. 23      4
          0.000000000000000      -0.000000000000000      -1.000000000000000
          0.000000000000000       1.000000000000000      -0.000000000000000
          1.000000000000000       0.000000000000000      -0.000000000000000
          0.000000000000000       0.000000000000000       0.000000000000000
# Symm. op. 24     -4
         -0.000000000000000       0.000000000000000       1.000000000000000
         -0.000000000000000      -1.000000000000000       0.000000000000000
         -1.000000000000000      -0.000000000000000       0.000000000000000
          0.000000000000000       0.000000000000000       0.000000000000000
# Symm. op. 25      3
          0.000000000000000       1.000000000000000      -0.000000000000000
          0.000000000000000      -0.000000000000000      -1.000000000000000
         -1.000000000000000      -0.000000000000000       0.000000000000000
          0.000000000000000       0.000000000000000       0.000000000000000
# Symm. op. 26     -3
         -0.000000000000000      -1.000000000000000       0.000000000000000
         -0.000000000000000       0.000000000000000       1.000000000000000
          1.000000000000000       0.000000000000000      -0.000000000000000
          0.000000000000000       0.000000000000000       0.000000000000000
# Symm. op. 27      2
          0.000000000000000      -0.000000000000000      -1.000000000000000
         -0.000000000000000      -1.000000000000000       0.000000000000000
         -1.000000000000000      -0.000000000000000       0.000000000000000
          0.000000000000000       0.000000000000000       0.000000000000000
# Symm. op. 28      m
         -0.000000000000000       0.000000000000000       1.000000000000000
          0.000000000000000       1.000000000000000      -0.000000000000000
          1.000000000000000       0.000000000000000      -0.000000000000000
          0.000000000000000       0.000000000000000       0.000000000000000
# Symm. op. 29      3
         -0.000000000000000      -1.000000000000000       0.000000000000000
         -0.000000000000000       0.000000000000000       1.000000000000000
         -1.000000000000000      -0.000000000000000       0.000000000000000
          0.000000000000000       0.000000000000000       0.000000000000000
# Symm. op. 30     -3
          0.000000000000000       1.000000000000000      -0.000000000000000
          0.000000000000000      -0.000000000000000      -1.000000000000000
          1.000000000000000       0.000000000000000      -0.000000000000000
          0.000000000000000       0.000000000000000       0.000000000000000
# Symm. op. 31      4
         -0.000000000000000       0.000000000000000       1.000000000000000
          0.000000000000000       1.000000000000000      -0.000000000000000
         -1.000000000000000      -0.000000000000000       0.000000000000000
          0.000000000000000       0.000000000000000       0.000000000000000
# Symm. op. 32     -4
          0.000000000000000      -0.000000000000000      -1.000000000000000
         -0.000000000000000      -1.000000000000000       0.000000000000000
          1.000000000000000       0.000000000000000      -0.000000000000000
          0.000000000000000       0.000000000000000       0.000000000000000
# Symm. op. 33      3
         -0.000000000000000       0.000000000000000       1.000000000000000
          1.000000000000000       0.000000000000000      -0.000000000000000
          0.000000000000000       1.000000000000000      -0.000000000000000
          0.000000000000000       0.000000000000000       0.000000000000000
# Symm. op. 34     -3
          0.000000000000000      -0.000000000000000      -1.000000000000000
         -1.000000000000000      -0.000000000000000       0.000000000000000
         -0.000000000000000      -1.000000000000000       0.000000000000000
          0.000000000000000       0.000000000000000       0.000000000000000
# Symm. op. 35      4
          1.000000000000000       0.000000000000000      -0.000000000000000
          0.000000000000000      -0.000000000000000      -1.000000000000000
          0.000000000000000       1.000000000000000      -0.000000000000000
          0.000000000000000       0.000000000000000       0.000000000000000
# Symm. op. 36     -4
         -1.000000000000000      -0.000000000000000       0.000000000000000
         -0.000000000000000       0.000000000000000       1.000000000000000
         -0.000000000000000      -1.000000000000000       0.000000000000000
          0.000000000000000       0.000000000000000       0.000000000000000
# Symm. op. 37      3
          0.000000000000000      -0.000000000000000      -1.000000000000000
         -1.000000000000000      -0.000000000000000       0.000000000000000
          0.000000000000000       1.000000000000000      -0.000000000000000
          0.000000000000000       0.000000000000000       0.000000000000000
# Symm. op. 38     -3
         -0.000000000000000       0.000000000000000       1.000000000000000
          1.000000000000000       0.000000000000000      -0.000000000000000
         -0.000000000000000      -1.000000000000000       0.000000000000000
          0.000000000000000       0.000000000000000       0.000000000000000
# Symm. op. 39      2
         -1.000000000000000      -0.000000000000000       0.000000000000000
         -0.000000000000000       0.000000000000000       1.000000000000000
          0.000000000000000       1.000000000000000      -0.000000000000000
          0.000000000000000       0.000000000000000       0.000000000000000
# Symm. op. 40      m
          1.000000000000000       0.000000000000000      -0.000000000000000
          0.000000000000000      -0.000000000000000      -1.000000000000000
         -0.000000000000000      -1.000000000000000       0.000000000000000
          0.000000000000000       0.000000000000000       0.000000000000000
# Symm. op. 41      3
         -0.000000000000000       0.000000000000000       1.000000000000000
         -1.000000000000000      -0.000000000000000       0.000000000000000
         -0.000000000000000      -1.000000000000000       0.000000000000000
          0.000000000000000       0.000000000000000       0.000000000000000
# Symm. op. 42     -3
          0.000000000000000      -0.000000000000000      -1.000000000000000
          1.000000000000000       0.000000000000000      -0.000000000000000
          0.000000000000000       1.000000000000000      -0.000000000000000
          0.000000000000000       0.000000000000000       0.000000000000000
# Symm. op. 43      2
         -1.000000000000000      -0.000000000000000       0.000000000000000
          0.000000000000000      -0.000000000000000      -1.000000000000000
         -0.000000000000000      -1.000000000000000       0.000000000000000
          0.000000000000000       0.000000000000000       0.000000000000000
# Symm. op. 44      m
          1.000000000000000       0.000000000000000      -0.000000000000000
         -0.000000000000000       0.000000000000000       1.000000000000000
          0.000000000000000       1.000000000000000      -0.000000000000000
          0.000000000000000       0.000000000000000       0.000000000000000
# Symm. op. 45      3
          0.000000000000000      -0.000000000000000      -1.000000000000000
          1.000000000000000       0.000000000000000      -0.000000000000000
         -0.000000000000000      -1.000000000000000       0.000000000000000
          0.000000000000000       0.000000000000000       0.000000000000000
# Symm. op. 46     -3
         -0.000000000000000       0.000000000000000       1.000000000000000
         -1.000000000000000      -0.000000000000000       0.000000000000000
          0.000000000000000       1.000000000000000      -0.000000000000000
          0.000000000000000       0.000000000000000       0.000000000000000
# Symm. op. 47      4
          1.000000000000000       0.000000000000000      -0.000000000000000
         -0.000000000000000       0.000000000000000       1.000000000000000
         -0.000000000000000      -1.000000000000000       0.000000000000000
          0.000000000000000       0.000000000000000       0.000000000000000
# Symm. op. 48     -4
         -1.000000000000000      -0.000000000000000       0.000000000000000
          0.000000000000000      -0.000000000000000      -1.000000000000000
          0.000000000000000       1.000000000000000      -0.000000000000000
          0.000000000000000       0.000000000000000       0.000000000000000
%ENDBLOCK symmetry_ops

kpoint_mp_grid :   15  15  15

bs_kpoint_mp_grid :    9   9   9

optics_kpoint_mp_grid :    9   9   9

elnes_kpoint_mp_grid :    9   9   9

magres_kpoint_mp_grid :    9   9   9

phonon_kpoint_mp_grid :    9   9   9

