%block LATTICE_CART
 -1.7669227   0.0000000   1.7669227
  0.0000000   1.7669227   1.7669227
 -1.7669227   1.7669227   0.0000000
%endblock LATTICE_CART

%block POSITIONS_FRAC
 Cu  0.000000  0.000000  0.000000
%endblock POSITIONS_FRAC

KPOINTS_MP_GRID 9 9 9
SPECTRAL_KPOINT_MP_GRID 15 15 15
symmetry_generate

