# 

%BLOCK LATTICE_CART
ang    # angstrom units
   2.500783800000000   0.000000000000000   0.000000000000000
  -1.250391899999999   2.165742300172583   0.000000000000000
   0.000000000000000   0.000000000000000   4.033331000000000
%ENDBLOCK LATTICE_CART

%BLOCK POSITIONS_FRAC
Co   0.666666666666667   0.333333333333333   0.750000000000000 
Co   0.333333333333333   0.666666666666667   0.250000000000000 
%ENDBLOCK POSITIONS_FRAC
 
spectral_kpoints_mp_grid : 15 15 15
 
symmetry_generate
 
snap_to_symmetry
