# CELL file written 14:20:25 (GMT+1.0) 5th May 2021 from run FeAs

%BLOCK lattice_cart
   ANG
       5.40300000000000        0.00000000000000        0.00000000000000    
       0.00000000000000        5.94880000000000        0.00000000000000    
       0.00000000000000        0.00000000000000        3.29020000000000    
%ENDBLOCK lattice_cart

%BLOCK cell_constraints
      1   2   3
      0   0   0
%ENDBLOCK cell_constraints

%BLOCK positions_frac
   Fe             0.002900000000000       0.198400000000000       0.250000000000000 SPIN= 2.000
   Fe             0.997100000000000       0.801600000000000       0.750000000000000 SPIN= 2.000
   Fe             0.497100000000000       0.698400000000000       0.750000000000000 SPIN= 2.000
   Fe             0.502900000000000       0.301600000000000       0.250000000000000 SPIN= 2.000
   As             0.197300000000000       0.575200000000000       0.250000000000000
   As             0.802700000000000       0.424800000000000       0.750000000000000
   As             0.302700000000000       0.075200000000000       0.750000000000000
   As             0.697300000000000       0.924800000000000       0.250000000000000
%ENDBLOCK positions_frac

FIX_COM : true

%BLOCK species_pot
   Fe      3|2.4|2.4|1.0|8|9|10|40:41:32U2U2(qc=5.5)
   As      3|2.0|10|12|13|40:41:32(qc=6)
%ENDBLOCK species_pot

SYMMETRY_TOL :     0.001000

%BLOCK symmetry_ops
# Symm. op. 1       E
          1.000000000000000       0.000000000000000       0.000000000000000
          0.000000000000000       1.000000000000000       0.000000000000000
          0.000000000000000       0.000000000000000       1.000000000000000
          0.000000000000000       0.000000000000000       0.000000000000000
# Symm. op. 2       I
         -1.000000000000000       0.000000000000000       0.000000000000000
          0.000000000000000      -1.000000000000000       0.000000000000000
          0.000000000000000       0.000000000000000      -1.000000000000000
          0.000000000000000      -0.000000000000000       0.000000000000000
# Symm. op. 3     2_1
         -1.000000000000000       0.000000000000000       0.000000000000000
          0.000000000000000       1.000000000000000       0.000000000000000
          0.000000000000000       0.000000000000000      -1.000000000000000
          0.500000000000000       0.500000000000000       0.000000000000000
# Symm. op. 4       a
          1.000000000000000       0.000000000000000       0.000000000000000
          0.000000000000000      -1.000000000000000       0.000000000000000
          0.000000000000000       0.000000000000000       1.000000000000000
          0.500000000000000       0.500000000000000       0.000000000000000
# Symm. op. 5     2_1
          1.000000000000000       0.000000000000000       0.000000000000000
          0.000000000000000      -1.000000000000000       0.000000000000000
          0.000000000000000       0.000000000000000      -1.000000000000000
          0.500000000000000       0.500000000000000       0.500000000000000
# Symm. op. 6       n
         -1.000000000000000       0.000000000000000       0.000000000000000
          0.000000000000000       1.000000000000000       0.000000000000000
          0.000000000000000       0.000000000000000       1.000000000000000
          0.500000000000000       0.500000000000000       0.500000000000000
# Symm. op. 7     2_1
         -1.000000000000000       0.000000000000000       0.000000000000000
          0.000000000000000      -1.000000000000000       0.000000000000000
          0.000000000000000       0.000000000000000       1.000000000000000
          0.000000000000000      -0.000000000000000       0.500000000000000
# Symm. op. 8       m
          1.000000000000000       0.000000000000000       0.000000000000000
          0.000000000000000       1.000000000000000       0.000000000000000
          0.000000000000000       0.000000000000000      -1.000000000000000
          0.000000000000000       0.000000000000000       0.500000000000000
%ENDBLOCK symmetry_ops

kpoint_mp_grid :   15  15  15

bs_kpoint_mp_grid :    3   3   3

optics_kpoint_mp_grid :    3   3   3

elnes_kpoint_mp_grid :    3   3   3

magres_kpoint_mp_grid :    3   3   3

phonon_kpoint_mp_grid :    3   3   3

