%BLOCK LATTICE_CART
ang    # angstrom units
   5.403000000000000   0.000000000000000   0.000000000000000
   0.000000000000000   5.948800000000000   0.000000000000000
   0.000000000000000   0.000000000000000   3.290200000000000
%ENDBLOCK LATTICE_CART

%BLOCK POSITIONS_FRAC
As   0.197300000000000   0.575200000000000   0.250000000000000 
As   0.802700000000000   0.424800000000000   0.750000000000000 
As   0.302700000000000   0.075200000000000   0.750000000000000 
As   0.697300000000000   0.924800000000000   0.250000000000000 
Fe   0.002900000000000   0.198400000000000   0.250000000000000 spin = 2 
Fe   0.997100000000000   0.801600000000000   0.750000000000000 spin = 2
Fe   0.497100000000000   0.698400000000000   0.750000000000000 spin = 2 
Fe   0.502900000000000   0.301600000000000   0.250000000000000 spin = 2
%ENDBLOCK POSITIONS_FRAC

snap_to_symmetry
symmetry_generate

kpoints_mp_grid : 3 3 3
spectral_kpoint_mp_grid : 15 15 15